################################## VARIABLES ##################################
variable folder string NVT_200atm/
variable filename string Dec_30

variable tdamp string 200
variable pdamp string 1000
variable temp string 200

variable start_time equal 0							#___________________________________
reset_timestep ${start_time}					  			   		
variable end_time equal ${start_time}+4600000

################################## READ RESTART FILE ##################################
variable restartfile string restart_archive_1600000_Dec_12          #___________________________________
read_restart ${folder}${restartfile} 		

################################## READ RESTART FILE ##################################
include      .\pairing_tip4p_OPLS.parameters_ONLY

################################## ##################################
neighbor                1.0 bin
neigh_modify            delay 0 every 1 check yes cluster yes

group 		water type 1 2

fix 			fixNVT all nvt temp ${temp} ${temp} ${tdamp}  
fix             2 all shake 0.0001 30 0 b 1 a 1

compute 		H2O_temp water temp
compute 		H2O_pressure all pressure H2O_temp

thermo 			300
thermo_style custom step time cpuremain ebond eangle density press temp vol enthalpy  pe ke etotal 

dump           NPT all dcd 500 ${folder}dump_npt_long_${filename}.dcd
dump_modify   NPT unwrap yes

log            ${folder}run_NPT_long_${filename}.txt

restart  	100000 ${folder}restart_archive_*_${filename}
restart  	10000 ${folder}restart_NPT_${filename}.1 restart_NVE_${filename}.2

timestep        1.0
run            ${end_time}

write_restart  ${folder}restart_last_NPT_${filename}



##################################            ##################################
################################## NOT USEFUL ##################################
##################################            ##################################
#dump           NVE_xyz all xyz 1000 ${folder}dump_nve_long_${filename}.xyz
#dump_modify   NVE_xyz pbc yes
#dump_modify   NPT pbc yes
#dump_modify   NPT element O H C 
#neigh_modify            delay 0 every 1 check yes cluster yes
#fix             NPT all npt temp ${temp} ${temp} ${tdamp} iso 250.0 250.0 ${pdamp}

#run            14000000
