
echo           both
units          real
dimension      3
boundary       p p p
atom_style     full
